StringID   Type       x          y          demand     ReadyTime  DueDate    ServiceTime 
D0         d          35.0       35.0       0.0        0.0        230.0      0.0       
S0         f          35.0       35.0       0.0        0.0        230.0      0.0       
S1         f          50.0       57.0       0.0        0.0        230.0      0.0       
S2         f          6.0        37.0       0.0        0.0        230.0      0.0       
S3         f          66.0       66.0       0.0        0.0        230.0      0.0       
S4         f          52.0       42.0       0.0        0.0        230.0      0.0       
S5         f          62.0       49.0       0.0        0.0        230.0      0.0       
S6         f          75.0       31.0       0.0        0.0        230.0      0.0       
S7         f          65.0       21.0       0.0        0.0        230.0      0.0       
S8         f          37.0       21.0       0.0        0.0        230.0      0.0       
S9         f          97.0       16.0       0.0        0.0        230.0      0.0       
S10        f          80.0       36.0       0.0        0.0        230.0      0.0       
S11        f          69.0       94.0       0.0        0.0        230.0      0.0       
S12        f          78.0       22.0       0.0        0.0        230.0      0.0       
S13        f          40.0       16.0       0.0        0.0        230.0      0.0       
S14        f          94.0       13.0       0.0        0.0        230.0      0.0       
S15        f          88.0       46.0       0.0        0.0        230.0      0.0       
S16        f          61.0       75.0       0.0        0.0        230.0      0.0       
S17        f          13.0       49.0       0.0        0.0        230.0      0.0       
S18        f          56.0       44.0       0.0        0.0        230.0      0.0       
S19        f          79.0       85.0       0.0        0.0        230.0      0.0       
S20        f          27.0       74.0       0.0        0.0        230.0      0.0       
C1         c          22.0       14.0       10.0       161.0      171.0      10.0      
C2         c          92.0       47.0       7.0        50.0       60.0       10.0      
C3         c          65.0       45.0       13.0       116.0      126.0      10.0      
C4         c          86.0       46.0       19.0       149.0      159.0      10.0      
C5         c          90.0       33.0       26.0       34.0       44.0       10.0      
C6         c          68.0       5.0        3.0        99.0       109.0      10.0      
C7         c          11.0       49.0       5.0        81.0       91.0       10.0      
C8         c          80.0       51.0       9.0        95.0       105.0      10.0      
C9         c          30.0       40.0       16.0       97.0       107.0      10.0      
C10        c          42.0       52.0       16.0       124.0      134.0      10.0      
C11        c          17.0       86.0       12.0       67.0       77.0       10.0      
C12        c          78.0       98.0       19.0       63.0       73.0       10.0      
C13        c          18.0       39.0       23.0       159.0      169.0      10.0      
C14        c          31.0       73.0       20.0       32.0       42.0       10.0      
C15        c          89.0       37.0       8.0        61.0       71.0       10.0      
C16        c          53.0       20.0       19.0       75.0       85.0       10.0      
C17        c          55.0       34.0       2.0        157.0      167.0      10.0      
C18        c          17.0       36.0       12.0       87.0       97.0       10.0      
C19        c          90.0       87.0       17.0       76.0       86.0       10.0      
C20        c          40.0       16.0       9.0        126.0      136.0      10.0      
C21        c          22.0       80.0       11.0       62.0       72.0       10.0      
C22        c          30.0       61.0       18.0       97.0       107.0      10.0      
C23        c          90.0       56.0       29.0       68.0       78.0       10.0      
C24        c          18.0       48.0       3.0        153.0      163.0      10.0      
C25        c          8.0        33.0       6.0        172.0      182.0      10.0      
C26        c          76.0       6.0        17.0       132.0      142.0      10.0      
C27        c          17.0       96.0       16.0       37.0       47.0       10.0      
C28        c          65.0       69.0       16.0       39.0       49.0       10.0      
C29        c          38.0       57.0       9.0        63.0       73.0       10.0      
C30        c          23.0       85.0       21.0       71.0       81.0       10.0      
C31        c          53.0       45.0       27.0       50.0       60.0       10.0      
C32        c          9.0        69.0       23.0       141.0      151.0      10.0      
C33        c          18.0       75.0       11.0       37.0       47.0       10.0      
C34        c          52.0       37.0       14.0       117.0      127.0      10.0      
C35        c          16.0       60.0       8.0        143.0      153.0      10.0      
C36        c          95.0       33.0       5.0        41.0       51.0       10.0      
C37        c          88.0       31.0       8.0        134.0      144.0      10.0      
C38        c          14.0       27.0       16.0       83.0       93.0       10.0      
C39        c          53.0       29.0       31.0       44.0       54.0       10.0      
C40        c          1.0        38.0       9.0        85.0       95.0       10.0      
C41        c          81.0       93.0       5.0        97.0       107.0      10.0      
C42        c          32.0       35.0       5.0        31.0       41.0       10.0      
C43        c          86.0       69.0       7.0        132.0      142.0      10.0      
C44        c          51.0       33.0       18.0       69.0       79.0       10.0      
C45        c          86.0       95.0       16.0       32.0       42.0       10.0      
C46        c          71.0       41.0       1.0        117.0      127.0      10.0      
C47        c          67.0       96.0       27.0       51.0       61.0       10.0      
C48        c          97.0       55.0       36.0       165.0      175.0      10.0      
C49        c          49.0       6.0        30.0       108.0      118.0      10.0      
C50        c          63.0       12.0       13.0       124.0      134.0      10.0      
C51        c          96.0       27.0       10.0       88.0       98.0       10.0      
C52        c          54.0       54.0       9.0        52.0       62.0       10.0      
C53        c          99.0       38.0       14.0       95.0       105.0      10.0      
C54        c          94.0       4.0        18.0       140.0      150.0      10.0      
C55        c          48.0       75.0       2.0        136.0      146.0      10.0      
C56        c          81.0       70.0       6.0        130.0      140.0      10.0      
C57        c          81.0       13.0       7.0        101.0      111.0      10.0      
C58        c          46.0       69.0       18.0       200.0      210.0      10.0      
C59        c          45.0       6.0        28.0       18.0       28.0       10.0      
C60        c          66.0       83.0       3.0        162.0      172.0      10.0      
C61        c          63.0       26.0       13.0       76.0       86.0       10.0      
C62        c          63.0       100.0      19.0       58.0       68.0       10.0      
C63        c          60.0       56.0       10.0       34.0       44.0       10.0      
C64        c          81.0       56.0       9.0        73.0       83.0       10.0      
C65        c          1.0        70.0       20.0       51.0       61.0       10.0      
C66        c          56.0       11.0       25.0       127.0      137.0      10.0      
C67        c          3.0        99.0       25.0       83.0       93.0       10.0      
C68        c          3.0        95.0       36.0       142.0      152.0      10.0      
C69        c          9.0        18.0       6.0        50.0       60.0       10.0      
C70        c          37.0       41.0       5.0        182.0      192.0      10.0      
C71        c          19.0       53.0       15.0       77.0       87.0       10.0      
C72        c          97.0       21.0       25.0       35.0       45.0       10.0      
C73        c          53.0       49.0       9.0        78.0       88.0       10.0      
C74        c          11.0       35.0       8.0        149.0      159.0      10.0      
C75        c          28.0       10.0       18.0       69.0       79.0       10.0      
C76        c          89.0       75.0       13.0       73.0       83.0       10.0      
C77        c          88.0       20.0       14.0       179.0      189.0      10.0      
C78        c          10.0       60.0       3.0        96.0       106.0      10.0      
C79        c          52.0       5.0        23.0       92.0       102.0      10.0      
C80        c          29.0       77.0       6.0        182.0      192.0      10.0      
C81        c          42.0       42.0       26.0       94.0       104.0      10.0      
C82        c          41.0       95.0       16.0       55.0       65.0       10.0      
C83        c          84.0       38.0       11.0       44.0       54.0       10.0      
C84        c          71.0       83.0       7.0        101.0      111.0      10.0      
C85        c          32.0       69.0       41.0       91.0       101.0      10.0      
C86        c          16.0       22.0       35.0       94.0       104.0      10.0      
C87        c          79.0       38.0       26.0       93.0       103.0      10.0      
C88        c          27.0       56.0       9.0        74.0       84.0       10.0      
C89        c          71.0       24.0       15.0       176.0      186.0      10.0      
C90        c          11.0       63.0       3.0        95.0       105.0      10.0      
C91        c          77.0       71.0       1.0        160.0      170.0      10.0      
C92        c          92.0       52.0       2.0        18.0       28.0       10.0      
C93        c          70.0       54.0       22.0       188.0      198.0      10.0      
C94        c          73.0       95.0       27.0       100.0      110.0      10.0      
C95        c          21.0       22.0       20.0       39.0       49.0       10.0      
C96        c          75.0       31.0       11.0       135.0      145.0      10.0      
C97        c          55.0       70.0       12.0       133.0      143.0      10.0      
C98        c          70.0       17.0       10.0       58.0       68.0       10.0      
C99        c          43.0       12.0       9.0        83.0       93.0       10.0      
C100       c          96.0       18.0       17.0       185.0      195.0      10.0      

Q xxxxxxxxxxxxxxxxxxxx /62.14/
C xxxxxxxxxxxxxxxxxxxxx /200.0/
r xxxxxxxxxxxxxx /1.0/
g xxxxxxxxxxxxxxxxxxxxxxx /0.48/
v xxxxxxxxxxxxxxx /1.0/
